instances/p2/p2_2_20-1.dzn
Alphabet = {A,C,G,T};
ns = 2;
nc = 15;
neighbours = [| I(G),I(C),I(G),I(A),I(C),I(A),I(T),Null,Null,Null,Null,Null,Null,Null,Null | I(C),I(G),I(C),I(T),I(T),I(C),I(T),I(A),I(A),I(T),I(C),I(A),I(G),I(A),I(A) |];
