instances/p2/p2_2_20-1.txt
{
	"num_strings": 2,
	"alphabet": "ACGT",
	"strings": [
		"GCGACAT",
		"CGCTTCTAATCAGAA"
	],
	"str_length":[7,15]
}